c Result of efficient AIG-to-CNF conversion using package CNF
p cnf 522 2003
2 3 -353 0
2 -3 353 0
-2 -3 -353 0
-2 3 353 0
3 4 -77 0
3 -4 77 0
-3 -4 -77 0
-3 4 77 0
4 5 -40 71 75 0
4 -5 40 71 75 0
-4 -75 0
-4 5 40 0
-4 -71 0
-4 -5 -40 0
5 -485 6 -27 0
5 485 6 -12 0
-5 -6 0
-5 -485 27 0
-5 485 12 0
-6 7 9 10 0
6 -7 0
6 -9 0
6 -10 0
-7 484 8 0
7 -484 0
7 -8 0
-8 480 481 482 483 0
8 -483 0
8 -482 0
8 -480 0
8 -481 0
-9 473 474 475 0
9 -473 0
9 -475 0
9 -474 0
-10 479 11 0
10 -479 0
10 -11 0
-11 476 477 478 0
11 -476 0
11 -478 0
11 -477 0
-12 486 13 0
-12 -486 20 0
12 -486 -20 0
12 486 -13 0
-13 487 14 0
-13 -487 17 0
13 -487 -17 0
13 487 -14 0
-14 488 16 0
-14 -488 15 0
14 -488 -15 0
14 488 -16 0
15 -461 -489 0
15 -460 489 0
-15 460 489 0
-15 461 -489 0
16 -459 -489 0
16 -458 489 0
-16 458 489 0
-16 459 -489 0
17 488 -18 0
17 -488 -19 0
-17 -488 19 0
-17 488 18 0
18 -463 -489 0
18 -462 489 0
-18 462 489 0
-18 463 -489 0
19 -465 -489 0
19 -464 489 0
-19 464 489 0
-19 465 -489 0
20 487 -21 0
20 -487 -24 0
-20 -487 24 0
-20 487 21 0
21 488 -22 0
21 -488 -23 0
-21 -488 23 0
-21 488 22 0
22 -467 -489 0
22 -466 489 0
-22 466 489 0
-22 467 -489 0
23 -469 -489 0
23 -468 489 0
-23 468 489 0
-23 469 -489 0
24 488 -25 0
24 -488 -26 0
-24 -488 26 0
-24 488 25 0
25 -471 -489 0
25 -470 489 0
-25 470 489 0
-25 471 -489 0
26 -473 -489 0
26 -472 489 0
-26 472 489 0
-26 473 -489 0
27 486 -28 0
27 -486 -35 0
-27 -486 35 0
-27 486 28 0
28 487 -29 0
28 -487 -32 0
-28 -487 32 0
-28 487 29 0
29 488 -30 0
29 -488 -31 0
-29 -488 31 0
-29 488 30 0
30 -475 -489 0
30 -474 489 0
-30 474 489 0
-30 475 -489 0
31 -477 -489 0
31 -476 489 0
-31 476 489 0
-31 477 -489 0
32 488 -33 0
32 -488 -34 0
-32 -488 34 0
-32 488 33 0
33 -479 -489 0
33 -478 489 0
-33 478 489 0
-33 479 -489 0
34 -481 -489 0
34 -480 489 0
-34 480 489 0
-34 481 -489 0
35 487 -36 0
35 -487 -39 0
-35 -487 39 0
-35 487 36 0
36 488 -37 0
36 -488 -38 0
-36 -488 38 0
-36 488 37 0
37 -483 -489 0
37 -482 489 0
-37 482 489 0
-37 483 -489 0
38 -485 -489 0
38 -484 489 0
-38 484 489 0
-38 485 -489 0
-39 487 488 -489 0
-39 486 488 489 0
39 -488 0
39 -486 489 0
39 -487 -489 0
40 -485 6 -56 0
40 485 6 -41 0
-40 -6 0
-40 -485 56 0
-40 485 41 0
-41 486 42 0
-41 -486 49 0
41 -486 -49 0
41 486 -42 0
-42 487 43 0
-42 -487 46 0
42 -487 -46 0
42 487 -43 0
-43 488 45 0
-43 -488 44 0
43 -488 -44 0
43 488 -45 0
44 489 -492 0
44 -489 -493 0
-44 -489 493 0
-44 489 492 0
45 489 -490 0
45 -489 -491 0
-45 -489 491 0
-45 489 490 0
46 488 -47 0
46 -488 -48 0
-46 -488 48 0
-46 488 47 0
47 489 -494 0
47 -489 -495 0
-47 -489 495 0
-47 489 494 0
48 489 -496 0
48 -489 -497 0
-48 -489 497 0
-48 489 496 0
49 487 -50 0
49 -487 -53 0
-49 -487 53 0
-49 487 50 0
50 488 -51 0
50 -488 -52 0
-50 -488 52 0
-50 488 51 0
51 489 -498 0
51 -489 -499 0
-51 -489 499 0
-51 489 498 0
52 489 -500 0
52 -489 -501 0
-52 -489 501 0
-52 489 500 0
53 488 -54 0
53 -488 -55 0
-53 -488 55 0
-53 488 54 0
54 489 -502 0
54 -489 -503 0
-54 -489 503 0
-54 489 502 0
55 489 -504 0
55 -489 -505 0
-55 -489 505 0
-55 489 504 0
56 486 -57 0
56 -486 -64 0
-56 -486 64 0
-56 486 57 0
57 487 -58 0
57 -487 -61 0
-57 -487 61 0
-57 487 58 0
58 488 -59 0
58 -488 -60 0
-58 -488 60 0
-58 488 59 0
59 489 -506 0
59 -489 -507 0
-59 -489 507 0
-59 489 506 0
60 489 -508 0
60 -489 -509 0
-60 -489 509 0
-60 489 508 0
61 488 -62 0
61 -488 -63 0
-61 -488 63 0
-61 488 62 0
62 489 -510 0
62 -489 -511 0
-62 -489 511 0
-62 489 510 0
63 489 -512 0
63 -489 -513 0
-63 -489 513 0
-63 489 512 0
64 487 -65 0
64 -487 -68 0
-64 -487 68 0
-64 487 65 0
65 488 -66 0
65 -488 -67 0
-65 -488 67 0
-65 488 66 0
66 489 -514 0
66 -489 -515 0
-66 -489 515 0
-66 489 514 0
67 489 -516 0
67 -489 -517 0
-67 -489 517 0
-67 489 516 0
68 488 -69 0
68 -488 -70 0
-68 -488 70 0
-68 488 69 0
69 489 -518 0
69 -489 -519 0
-69 -489 519 0
-69 489 518 0
-70 -489 521 0
-70 489 520 0
70 489 -520 0
70 -489 -521 0
-71 470 471 472 72 0
71 -72 0
71 -472 0
71 -470 0
71 -471 0
-72 468 469 73 0
72 -73 0
72 -469 0
72 -468 0
-73 463 464 466 74 0
73 -74 0
73 -466 0
73 -463 0
73 -464 0
-74 465 467 0
74 -465 0
74 -467 0
-75 461 462 76 0
75 -76 0
75 -462 0
75 -461 0
-76 458 459 460 0
76 -458 0
76 -460 0
76 -459 0
77 -78 -113 0
77 -113 -141 0
77 -78 -141 0
-77 78 141 0
-77 113 141 0
-77 78 113 0
78 485 93 -98 0
78 -485 -79 93 0
-78 -93 0
-78 -485 79 0
-78 485 98 0
79 486 -80 0
79 -486 -87 0
-79 -486 87 0
-79 486 80 0
80 487 -81 0
80 -487 -84 0
-80 -487 84 0
-80 487 81 0
81 488 -82 0
81 -488 -83 0
-81 -488 83 0
-81 488 82 0
82 489 -507 0
82 -489 -508 0
-82 -489 508 0
-82 489 507 0
83 489 -509 0
83 -489 -510 0
-83 -489 510 0
-83 489 509 0
84 488 -85 0
84 -488 -86 0
-84 -488 86 0
-84 488 85 0
85 489 -511 0
85 -489 -512 0
-85 -489 512 0
-85 489 511 0
86 489 -513 0
86 -489 -514 0
-86 -489 514 0
-86 489 513 0
87 487 -88 0
87 -487 -91 0
-87 -487 91 0
-87 487 88 0
88 488 -89 0
88 -488 -90 0
-88 -488 90 0
-88 488 89 0
89 489 -515 0
89 -489 -516 0
-89 -489 516 0
-89 489 515 0
90 489 -517 0
90 -489 -518 0
-90 -489 518 0
-90 489 517 0
-91 -488 -489 0
-91 488 92 0
-91 -488 521 0
91 488 -92 0
91 -488 489 -521 0
92 489 -519 0
92 -489 -520 0
-92 -489 520 0
-92 489 519 0
-93 11 73 94 95 0
93 -95 0
93 -11 0
93 -94 0
93 -73 0
-94 479 8 0
94 -479 0
94 -8 0
-95 484 96 75 97 0
95 -484 0
95 -97 0
95 -75 0
95 -96 0
-96 468 469 0
96 -468 0
96 -469 0
-97 470 471 472 9 0
97 -9 0
97 -472 0
97 -470 0
97 -471 0
98 486 -99 0
98 -486 -106 0
-98 -486 106 0
-98 486 99 0
99 487 -100 0
99 -487 -103 0
-99 -487 103 0
-99 487 100 0
100 488 -101 0
100 -488 -102 0
-100 -488 102 0
-100 488 101 0
101 489 -491 0
101 -489 -492 0
-101 -489 492 0
-101 489 491 0
102 489 -493 0
102 -489 -494 0
-102 -489 494 0
-102 489 493 0
103 488 -104 0
103 -488 -105 0
-103 -488 105 0
-103 488 104 0
104 489 -495 0
104 -489 -496 0
-104 -489 496 0
-104 489 495 0
105 489 -497 0
105 -489 -498 0
-105 -489 498 0
-105 489 497 0
106 487 -107 0
106 -487 -110 0
-106 -487 110 0
-106 487 107 0
107 488 -108 0
107 -488 -109 0
-107 -488 109 0
-107 488 108 0
108 489 -499 0
108 -489 -500 0
-108 -489 500 0
-108 489 499 0
109 489 -501 0
109 -489 -502 0
-109 -489 502 0
-109 489 501 0
110 488 -111 0
110 -488 -112 0
-110 -488 112 0
-110 488 111 0
111 489 -503 0
111 -489 -504 0
-111 -489 504 0
-111 489 503 0
112 489 -505 0
112 -489 -506 0
-112 -489 506 0
-112 489 505 0
113 -485 93 -129 0
113 485 93 -114 0
-113 -93 0
-113 -485 129 0
-113 485 114 0
-114 486 115 0
-114 -486 122 0
114 -486 -122 0
114 486 -115 0
-115 487 116 0
-115 -487 119 0
115 -487 -119 0
115 487 -116 0
-116 488 118 0
-116 -488 117 0
116 -488 -117 0
116 488 -118 0
117 -462 -489 0
117 -461 489 0
-117 461 489 0
-117 462 -489 0
118 -460 -489 0
118 -459 489 0
-118 459 489 0
-118 460 -489 0
119 488 -120 0
119 -488 -121 0
-119 -488 121 0
-119 488 120 0
120 -464 -489 0
120 -463 489 0
-120 463 489 0
-120 464 -489 0
121 -466 -489 0
121 -465 489 0
-121 465 489 0
-121 466 -489 0
122 487 -123 0
122 -487 -126 0
-122 -487 126 0
-122 487 123 0
123 488 -124 0
123 -488 -125 0
-123 -488 125 0
-123 488 124 0
124 -468 -489 0
124 -467 489 0
-124 467 489 0
-124 468 -489 0
125 -470 -489 0
125 -469 489 0
-125 469 489 0
-125 470 -489 0
126 488 -127 0
126 -488 -128 0
-126 -488 128 0
-126 488 127 0
127 -472 -489 0
127 -471 489 0
-127 471 489 0
-127 472 -489 0
128 -474 -489 0
128 -473 489 0
-128 473 489 0
-128 474 -489 0
129 486 -130 0
129 -486 -137 0
-129 -486 137 0
-129 486 130 0
130 487 -131 0
130 -487 -134 0
-130 -487 134 0
-130 487 131 0
131 488 -132 0
131 -488 -133 0
-131 -488 133 0
-131 488 132 0
132 -476 -489 0
132 -475 489 0
-132 475 489 0
-132 476 -489 0
133 -478 -489 0
133 -477 489 0
-133 477 489 0
-133 478 -489 0
134 488 -135 0
134 -488 -136 0
-134 -488 136 0
-134 488 135 0
135 -480 -489 0
135 -479 489 0
-135 479 489 0
-135 480 -489 0
136 -482 -489 0
136 -481 489 0
-136 481 489 0
-136 482 -489 0
-137 -487 -488 0
-137 487 138 0
-137 -487 -489 0
137 487 -138 0
137 -487 488 489 0
138 488 -139 0
138 -488 -140 0
-138 -488 140 0
-138 488 139 0
139 -484 -489 0
139 -483 489 0
-139 483 489 0
-139 484 -489 0
140 -486 -489 0
140 -485 489 0
-140 485 489 0
-140 486 -489 0
141 -142 -172 0
141 93 -157 -172 0
141 93 -142 -157 0
-141 142 157 0
-141 -93 172 0
-141 142 172 0
-141 -93 142 0
-141 157 172 0
142 -485 93 -150 0
142 485 93 -143 0
-142 -93 0
-142 -485 150 0
-142 485 143 0
-143 486 144 0
-143 -486 147 0
143 -486 -147 0
143 486 -144 0
-144 487 145 0
-144 -487 146 0
144 -487 -146 0
144 487 -145 0
-145 -488 47 0
-145 488 44 0
145 488 -44 0
145 -488 -47 0
146 488 -48 0
146 -488 -51 0
-146 -488 51 0
-146 488 48 0
147 487 -148 0
147 -487 -149 0
-147 -487 149 0
-147 487 148 0
148 488 -52 0
148 -488 -54 0
-148 -488 54 0
-148 488 52 0
149 488 -55 0
149 -488 -59 0
-149 -488 59 0
-149 488 55 0
150 486 -151 0
150 -486 -154 0
-150 -486 154 0
-150 486 151 0
151 487 -152 0
151 -487 -153 0
-151 -487 153 0
-151 487 152 0
152 488 -60 0
152 -488 -62 0
-152 -488 62 0
-152 488 60 0
153 488 -63 0
153 -488 -66 0
-153 -488 66 0
-153 488 63 0
154 487 -155 0
154 -487 -156 0
-154 -487 156 0
-154 487 155 0
155 488 -67 0
155 -488 -69 0
-155 -488 69 0
-155 488 67 0
156 488 -489 -521 0
156 488 489 -520 0
-156 -488 0
-156 -489 521 0
-156 489 520 0
-157 485 158 0
-157 -485 165 0
157 -485 -165 0
157 485 -158 0
-158 486 159 0
-158 -486 162 0
158 -486 -162 0
158 486 -159 0
-159 487 160 0
-159 -487 161 0
159 -487 -161 0
159 487 -160 0
-160 -488 18 0
-160 488 15 0
160 488 -15 0
160 -488 -18 0
161 488 -19 0
161 -488 -22 0
-161 -488 22 0
-161 488 19 0
162 487 -163 0
162 -487 -164 0
-162 -487 164 0
-162 487 163 0
163 488 -23 0
163 -488 -25 0
-163 -488 25 0
-163 488 23 0
164 488 -26 0
164 -488 -30 0
-164 -488 30 0
-164 488 26 0
165 486 -166 0
165 -486 -169 0
-165 -486 169 0
-165 486 166 0
166 487 -167 0
166 -487 -168 0
-166 -487 168 0
-166 487 167 0
167 488 -31 0
167 -488 -33 0
-167 -488 33 0
-167 488 31 0
168 488 -34 0
168 -488 -37 0
-168 -488 37 0
-168 488 34 0
169 487 -170 0
169 -487 488 -489 0
-169 -487 -488 0
-169 487 170 0
-169 -487 489 0
170 488 -38 0
170 -488 -171 0
-170 -488 171 0
-170 488 38 0
171 -487 -489 0
171 -486 489 0
-171 486 489 0
-171 487 -489 0
172 -173 -188 0
172 -173 -202 -217 0
172 -188 -202 -217 0
-172 188 217 0
-172 173 202 0
-172 173 217 0
-172 188 202 0
-172 173 188 0
173 -485 93 -181 0
173 485 93 -174 0
-173 -93 0
-173 -485 181 0
-173 485 174 0
-174 486 175 0
-174 -486 178 0
174 -486 -178 0
174 486 -175 0
-175 487 176 0
-175 -487 177 0
175 -487 -177 0
175 487 -176 0
-176 -488 104 0
-176 488 102 0
176 488 -102 0
176 -488 -104 0
177 488 -105 0
177 -488 -108 0
-177 -488 108 0
-177 488 105 0
178 487 -179 0
178 -487 -180 0
-178 -487 180 0
-178 487 179 0
179 488 -109 0
179 -488 -111 0
-179 -488 111 0
-179 488 109 0
180 -488 -82 0
180 488 -112 0
-180 488 112 0
-180 -488 82 0
181 486 -182 0
181 -486 -185 0
-181 -486 185 0
-181 486 182 0
182 487 -183 0
182 -487 -184 0
-182 -487 184 0
-182 487 183 0
183 488 -83 0
183 -488 -85 0
-183 -488 85 0
-183 488 83 0
184 488 -86 0
184 -488 -89 0
-184 -488 89 0
-184 488 86 0
-185 487 187 0
-185 -487 186 0
185 -487 -186 0
185 487 -187 0
186 488 489 -521 0
-186 521 0
-186 -489 0
-186 -488 0
187 488 -90 0
187 -488 -92 0
-187 -488 92 0
-187 488 90 0
188 -485 93 -196 0
188 485 93 -189 0
-188 -93 0
-188 -485 196 0
-188 485 189 0
-189 486 190 0
-189 -486 193 0
189 -486 -193 0
189 486 -190 0
-190 487 191 0
-190 -487 192 0
190 -487 -192 0
190 487 -191 0
-191 -488 120 0
-191 488 117 0
191 488 -117 0
191 -488 -120 0
192 488 -121 0
192 -488 -124 0
-192 -488 124 0
-192 488 121 0
193 487 -194 0
193 -487 -195 0
-193 -487 195 0
-193 487 194 0
194 488 -125 0
194 -488 -127 0
-194 -488 127 0
-194 488 125 0
195 488 -128 0
195 -488 -132 0
-195 -488 132 0
-195 488 128 0
196 486 -197 0
196 -486 -200 0
-196 -486 200 0
-196 486 197 0
197 487 -198 0
197 -487 -199 0
-197 -487 199 0
-197 487 198 0
198 488 -133 0
198 -488 -135 0
-198 -488 135 0
-198 488 133 0
199 488 -136 0
199 -488 -139 0
-199 -488 139 0
-199 488 136 0
200 487 -201 0
-200 -487 0
-200 201 0
201 -487 -488 0
201 488 -140 0
201 -488 -489 0
-201 488 140 0
-201 487 -488 489 0
-202 203 210 0
202 -203 0
202 -210 0
203 -485 93 -207 0
203 485 93 -204 0
-203 -93 0
-203 -485 207 0
-203 485 204 0
-204 486 205 0
-204 -486 206 0
204 -486 -206 0
204 486 -205 0
-205 -487 50 0
-205 487 46 0
205 487 -46 0
205 -487 -50 0
206 487 -53 0
206 -487 -58 0
-206 -487 58 0
-206 487 53 0
207 486 -208 0
207 -486 -209 0
-207 -486 209 0
-207 486 208 0
208 487 -61 0
208 -487 -65 0
-208 -487 65 0
-208 487 61 0
209 487 -68 0
-209 -487 0
-209 68 0
210 -485 93 -214 0
210 485 93 -211 0
-210 -93 0
-210 -485 214 0
-210 485 211 0
-211 486 212 0
-211 -486 213 0
211 -486 -213 0
211 486 -212 0
-212 -487 21 0
-212 487 17 0
212 487 -17 0
212 -487 -21 0
213 487 -24 0
213 -487 -29 0
-213 -487 29 0
-213 487 24 0
214 486 -215 0
214 -486 -216 0
-214 -486 216 0
-214 486 215 0
215 487 -32 0
215 -487 -36 0
-215 -487 36 0
-215 487 32 0
216 487 -488 0
216 -486 487 489 0
-216 -487 0
-216 488 -489 0
-216 486 488 0
-217 203 218 0
-217 210 218 0
217 -218 0
217 -203 -210 0
218 -219 -231 0
218 93 -226 -231 0
218 93 -219 -226 0
-218 219 226 0
-218 -93 231 0
-218 219 231 0
-218 -93 219 0
-218 226 231 0
219 -485 93 -223 0
219 485 93 -220 0
-219 -93 0
-219 -485 223 0
-219 485 220 0
-220 486 221 0
-220 -486 222 0
220 -486 -222 0
220 486 -221 0
-221 -487 107 0
-221 487 103 0
221 487 -103 0
221 -487 -107 0
222 -487 -81 0
222 487 -110 0
-222 487 110 0
-222 -487 81 0
223 486 -224 0
223 -486 -225 0
-223 -486 225 0
-223 486 224 0
224 487 -84 0
224 -487 -88 0
-224 -487 88 0
-224 487 84 0
225 487 -91 0
-225 -487 0
-225 91 0
-226 -485 -486 0
-226 485 227 0
-226 -485 230 0
226 485 -227 0
226 -485 486 -230 0
-227 486 228 0
-227 -486 229 0
227 -486 -229 0
227 486 -228 0
-228 -487 123 0
-228 487 119 0
228 487 -119 0
228 -487 -123 0
229 487 -126 0
229 -487 -131 0
-229 -487 131 0
-229 487 126 0
230 487 -134 0
230 -487 -138 0
-230 -487 138 0
-230 487 134 0
231 -232 -246 0
231 93 -239 -246 0
231 93 -232 -239 0
-231 232 239 0
-231 -93 246 0
-231 232 246 0
-231 -93 232 0
-231 239 246 0
232 -485 93 -236 0
232 485 93 -233 0
-232 -93 0
-232 -485 236 0
-232 485 233 0
-233 486 234 0
-233 -486 235 0
233 -486 -235 0
233 486 -234 0
-234 -487 148 0
-234 487 146 0
234 487 -146 0
234 -487 -148 0
235 487 -149 0
235 -487 -152 0
-235 -487 152 0
-235 487 149 0
236 486 -237 0
236 -486 -238 0
-236 -486 238 0
-236 486 237 0
237 487 -153 0
237 -487 -155 0
-237 -487 155 0
-237 487 153 0
238 487 -156 0
-238 -487 0
-238 156 0
-239 485 240 0
-239 -485 243 0
239 -485 -243 0
239 485 -240 0
-240 486 241 0
-240 -486 242 0
240 -486 -242 0
240 486 -241 0
-241 -487 163 0
-241 487 161 0
241 487 -161 0
241 -487 -163 0
242 487 -164 0
242 -487 -167 0
-242 -487 167 0
-242 487 164 0
243 486 -244 0
243 -486 -245 0
-243 -486 245 0
-243 486 244 0
244 487 -168 0
244 -487 -170 0
-244 -487 170 0
-244 487 168 0
245 487 488 -489 0
-245 489 0
-245 -488 0
-245 -487 0
246 -247 -254 0
246 -254 -260 0
246 -247 -260 0
-246 247 260 0
-246 254 260 0
-246 247 254 0
247 485 93 -248 0
247 -485 93 -251 0
-247 -93 0
-247 -485 251 0
-247 485 248 0
-248 486 249 0
-248 -486 250 0
248 -486 -250 0
248 486 -249 0
-249 -487 179 0
-249 487 177 0
249 487 -177 0
249 -487 -179 0
250 487 -180 0
250 -487 -183 0
-250 -487 183 0
-250 487 180 0
-251 486 253 0
-251 -486 252 0
251 -486 -252 0
251 486 -253 0
252 487 488 489 -521 0
-252 521 0
-252 -489 0
-252 -487 0
-252 -488 0
253 487 -184 0
253 -487 -187 0
-253 -487 187 0
-253 487 184 0
254 -485 93 -258 0
254 485 93 -255 0
-254 -93 0
-254 -485 258 0
-254 485 255 0
-255 486 256 0
-255 -486 257 0
255 -486 -257 0
255 486 -256 0
-256 -487 194 0
-256 487 192 0
256 487 -192 0
256 -487 -194 0
257 487 -195 0
257 -487 -198 0
-257 -487 198 0
-257 487 195 0
258 486 -259 0
-258 -486 0
-258 259 0
259 -487 -488 0
259 487 -199 0
259 -487 -140 0
-259 487 199 0
-259 -487 488 140 0
260 -261 -267 0
260 93 -264 -267 0
260 93 -261 -264 0
-260 261 264 0
-260 -93 267 0
-260 261 267 0
-260 -93 261 0
-260 264 267 0
261 -485 93 -263 0
261 485 93 -262 0
-261 -93 0
-261 -485 263 0
-261 485 262 0
-262 -486 57 0
-262 486 49 0
262 486 -49 0
262 -486 -57 0
263 486 -64 0
-263 -486 0
-263 64 0
-264 485 265 0
-264 -485 266 0
264 -485 -266 0
264 485 -265 0
-265 -486 28 0
-265 486 20 0
265 486 -20 0
265 -486 -28 0
266 486 -35 0
-266 -486 0
-266 35 0
267 -268 -271 0
267 -271 -274 0
267 -268 -274 0
-267 268 274 0
-267 271 274 0
-267 268 271 0
268 -485 93 -270 0
268 485 93 -269 0
-268 -93 0
-268 -485 270 0
-268 485 269 0
-269 486 106 0
-269 -486 80 0
269 -486 -80 0
269 486 -106 0
270 486 -87 0
-270 -486 0
-270 87 0
271 -485 93 -273 0
271 485 93 -272 0
-271 -93 0
-271 -485 273 0
-271 485 272 0
-272 -486 130 0
-272 486 122 0
272 486 -122 0
272 -486 -130 0
273 486 -137 0
-273 -486 0
-273 137 0
274 -275 -281 0
274 93 -278 -281 0
274 93 -275 -278 0
-274 275 278 0
-274 -93 281 0
-274 275 281 0
-274 -93 275 0
-274 278 281 0
275 -485 93 -277 0
275 485 93 -276 0
-275 -93 0
-275 -485 277 0
-275 485 276 0
-276 -486 151 0
-276 486 147 0
276 486 -147 0
276 -486 -151 0
277 486 -154 0
-277 -486 0
-277 154 0
-278 485 279 0
-278 -485 280 0
278 -485 -280 0
278 485 -279 0
-279 -486 166 0
-279 486 162 0
279 486 -162 0
279 -486 -166 0
280 486 -169 0
-280 -486 0
-280 169 0
281 -282 -288 0
281 93 -285 -288 0
281 93 -282 -285 0
-281 282 285 0
-281 -93 288 0
-281 282 288 0
-281 -93 282 0
-281 285 288 0
282 -485 93 -284 0
282 485 93 -283 0
-282 -93 0
-282 -485 284 0
-282 485 283 0
-283 -486 182 0
-283 486 178 0
283 486 -178 0
283 -486 -182 0
284 486 -185 0
-284 -486 0
-284 185 0
-285 485 286 0
-285 -485 287 0
285 -485 -287 0
285 485 -286 0
-286 -486 197 0
-286 486 193 0
286 486 -193 0
286 -486 -197 0
287 486 -200 0
-287 -486 0
-287 200 0
288 -289 -295 0
288 93 -292 -295 0
288 93 -289 -292 0
-288 289 292 0
-288 -93 295 0
-288 289 295 0
-288 -93 289 0
-288 292 295 0
289 -485 93 -291 0
289 485 93 -290 0
-289 -93 0
-289 -485 291 0
-289 485 290 0
-290 -486 208 0
-290 486 206 0
290 486 -206 0
290 -486 -208 0
291 486 -209 0
-291 -486 0
-291 209 0
-292 485 293 0
-292 -485 294 0
292 -485 -294 0
292 485 -293 0
-293 -486 215 0
-293 486 213 0
293 486 -213 0
293 -486 -215 0
294 486 487 -488 0
-294 488 0
-294 -487 0
-294 -486 0
295 -296 -299 0
295 -299 -304 0
295 -296 -304 0
-295 296 304 0
-295 299 304 0
-295 296 299 0
296 -485 93 -298 0
296 485 93 -297 0
-296 -93 0
-296 -485 298 0
-296 485 297 0
-297 -486 224 0
-297 486 222 0
297 486 -222 0
297 -486 -224 0
298 486 -225 0
-298 -486 0
-298 225 0
299 486 -300 302 0
299 -230 -300 302 0
-299 -302 0
-299 300 0
-299 -486 230 0
300 -486 11 301 0
300 11 -229 301 0
-300 -301 0
-300 -11 0
-300 486 229 0
-301 484 485 0
301 -484 0
301 -485 0
-302 96 94 97 303 0
302 -303 0
302 -96 0
302 -97 0
302 -94 0
-303 461 462 73 76 0
303 -461 0
303 -76 0
303 -73 0
303 -462 0
304 -305 -308 0
304 -308 -311 0
304 -305 -311 0
-304 305 311 0
-304 308 311 0
-304 305 308 0
305 -485 93 -307 0
305 485 93 -306 0
-305 -93 0
-305 -485 307 0
-305 485 306 0
-306 -486 237 0
-306 486 235 0
306 486 -235 0
306 -486 -237 0
307 486 -238 0
-307 -486 0
-307 238 0
308 -485 93 -310 0
308 485 93 -309 0
-308 -93 0
-308 -485 310 0
-308 485 309 0
-309 -486 244 0
-309 486 242 0
309 486 -242 0
309 -486 -244 0
310 486 487 488 -489 0
-310 489 0
-310 -488 0
-310 -486 0
-310 -487 0
311 -312 -315 0
311 -315 -317 0
311 -312 -317 0
-311 312 317 0
-311 315 317 0
-311 312 315 0
312 93 -313 0
-312 -93 0
-312 313 0
-313 -485 -486 0
-313 485 314 0
-313 -485 252 0
313 485 -314 0
313 -485 486 -252 0
-314 -486 253 0
-314 486 250 0
314 486 -250 0
314 -486 -253 0
315 485 486 -316 0
315 485 -259 -316 0
-315 -485 0
-315 316 0
-315 -486 259 0
316 -486 93 0
316 93 -257 0
-316 -93 0
-316 486 257 0
317 -320 -321 0
317 -27 318 -321 0
317 -27 318 -320 0
-317 -318 321 0
-317 27 320 0
-317 320 321 0
-317 -318 320 0
-317 27 321 0
-318 72 75 97 319 0
318 -319 0
318 -72 0
318 -97 0
318 -75 0
-319 485 7 10 0
319 -10 0
319 -7 0
319 -485 0
320 -56 318 0
-320 56 0
-320 -318 0
321 -322 -323 0
321 -323 -324 0
321 -322 -324 0
-321 322 324 0
-321 323 324 0
-321 322 323 0
322 -79 318 0
-322 79 0
-322 -318 0
323 -129 318 0
-323 129 0
-323 -318 0
324 -325 -326 0
324 -165 318 -326 0
324 -165 318 -325 0
-324 -318 326 0
-324 165 325 0
-324 325 326 0
-324 -318 325 0
-324 165 326 0
325 -150 318 0
-325 150 0
-325 -318 0
326 -327 -328 0
326 -328 -329 0
326 -327 -329 0
-326 327 329 0
-326 328 329 0
-326 327 328 0
327 -181 318 0
-327 181 0
-327 -318 0
328 -196 318 0
-328 196 0
-328 -318 0
329 -330 -331 0
329 -331 -332 0
329 -330 -332 0
-329 330 332 0
-329 331 332 0
-329 330 331 0
330 -207 318 0
-330 207 0
-330 -318 0
331 -214 318 0
-331 214 0
-331 -318 0
332 -223 318 -333 0
-332 223 0
-332 -318 0
-332 333 0
333 -334 -335 0
333 -335 -336 0
333 -334 -336 0
-333 334 336 0
-333 335 336 0
-333 334 335 0
334 -236 318 0
-334 236 0
-334 -318 0
335 -243 318 0
-335 243 0
-335 -318 0
336 -337 -338 0
336 -338 -339 0
336 -337 -339 0
-336 337 339 0
-336 338 339 0
-336 337 338 0
337 -251 318 0
-337 251 0
-337 -318 0
338 -258 318 0
-338 258 0
-338 -318 0
339 -340 -341 0
339 -341 -342 0
339 -340 -342 0
-339 340 342 0
-339 341 342 0
-339 340 341 0
340 -263 318 0
-340 263 0
-340 -318 0
341 -266 318 0
-341 266 0
-341 -318 0
342 -343 -344 0
342 -344 -345 0
342 -343 -345 0
-342 343 345 0
-342 344 345 0
-342 343 344 0
343 -270 318 0
-343 270 0
-343 -318 0
344 -273 318 0
-344 273 0
-344 -318 0
345 -277 318 -346 0
345 -277 -280 318 0
345 -280 318 -346 0
-345 280 346 0
-345 277 280 0
-345 -318 0
-345 277 346 0
346 -347 -348 0
346 -348 -349 0
346 -347 -349 0
-346 347 349 0
-346 348 349 0
-346 347 348 0
347 -284 318 0
-347 284 0
-347 -318 0
348 -287 318 0
-348 287 0
-348 -318 0
349 -350 -351 0
349 -351 -352 0
349 -350 -352 0
-349 350 352 0
-349 351 352 0
-349 350 351 0
350 -291 318 0
-350 291 0
-350 -318 0
351 486 487 -488 318 0
-351 -486 0
-351 -318 0
-351 488 0
-351 -487 0
352 -298 -307 -310 318 0
-352 -318 0
-352 298 0
-352 310 0
-352 307 0
353 485 93 -404 0
353 -485 93 -354 0
-353 -93 0
-353 485 404 0
-353 -485 354 0
-354 486 -395 0
-354 -486 355 0
-354 486 378 0
354 -486 -355 0
354 486 -378 395 0
355 487 -356 0
355 -487 -372 377 0
-355 -487 372 0
-355 487 356 0
-355 -487 -377 0
356 488 -357 0
356 -488 -368 0
-356 -488 368 0
-356 488 357 0
357 -489 -366 0
357 489 -358 359 0
357 489 358 -359 0
-357 -489 366 0
-357 489 -358 -359 0
-357 489 358 359 0
358 482 -514 0
358 -482 514 0
-358 -482 -514 0
-358 482 514 0
359 -483 -515 0
359 -515 -360 0
359 -483 -360 0
-359 483 360 0
-359 515 360 0
-359 483 515 0
360 -484 -516 0
360 -516 -361 0
360 -484 -361 0
-360 484 361 0
-360 516 361 0
-360 484 516 0
361 -485 -517 0
361 -517 -362 0
361 -485 -362 0
-361 485 362 0
-361 517 362 0
-361 485 517 0
362 -486 -518 0
362 -518 -363 0
362 -486 -363 0
-362 486 363 0
-362 518 363 0
-362 486 518 0
363 -487 -519 0
363 -519 -364 0
363 -487 -364 0
-363 487 364 0
-363 519 364 0
-363 487 519 0
364 -488 -520 0
364 -520 -365 0
364 -488 -365 0
-364 488 365 0
-364 520 365 0
-364 488 520 0
365 -489 -521 0
-365 489 0
-365 521 0
-366 -360 -367 0
-366 360 367 0
366 360 -367 0
366 -360 367 0
367 483 -515 0
367 -483 515 0
-367 -483 -515 0
-367 483 515 0
368 -489 -370 0
368 489 -361 369 0
368 489 361 -369 0
-368 -489 370 0
-368 489 -361 -369 0
-368 489 361 369 0
369 484 -516 0
369 -484 516 0
-369 -484 -516 0
-369 484 516 0
370 362 -371 0
370 -362 371 0
-370 -362 -371 0
-370 362 371 0
371 485 -517 0
371 -485 517 0
-371 -485 -517 0
-371 485 517 0
-372 488 373 0
372 -488 0
372 -373 0
373 -489 -375 0
373 489 -363 374 0
373 489 363 -374 0
-373 -489 375 0
-373 489 -363 -374 0
-373 489 363 374 0
374 486 -518 0
374 -486 518 0
-374 -486 -518 0
-374 486 518 0
375 364 -376 0
375 -364 376 0
-375 -364 -376 0
-375 364 376 0
376 487 -519 0
376 -487 519 0
-376 -487 -519 0
-376 487 519 0
377 -488 -489 -521 0
377 -488 489 -520 0
-377 488 0
-377 -489 521 0
-377 489 520 0
-378 487 -488 391 0
-378 487 488 379 0
378 -487 0
378 -488 -391 0
378 488 -379 0
379 -489 -389 0
379 489 -380 381 0
379 489 380 -381 0
-379 -489 389 0
-379 489 -380 -381 0
-379 489 380 381 0
380 474 -506 0
380 -474 506 0
-380 -474 -506 0
-380 474 506 0
381 -475 -507 0
381 -507 -382 0
381 -475 -382 0
-381 475 382 0
-381 507 382 0
-381 475 507 0
382 -476 -508 0
382 -508 -383 0
382 -476 -383 0
-382 476 383 0
-382 508 383 0
-382 476 508 0
383 -477 -509 0
383 -509 -384 0
383 -477 -384 0
-383 477 384 0
-383 509 384 0
-383 477 509 0
384 -478 -510 0
384 -510 -385 0
384 -478 -385 0
-384 478 385 0
-384 510 385 0
-384 478 510 0
385 -479 -511 0
385 -511 -386 0
385 -479 -386 0
-385 479 386 0
-385 511 386 0
-385 479 511 0
386 -480 -512 0
386 -512 -387 0
386 -480 -387 0
-386 480 387 0
-386 512 387 0
-386 480 512 0
387 -481 -513 0
387 -513 -388 0
387 -481 -388 0
-387 481 388 0
-387 513 388 0
-387 481 513 0
388 -482 -514 0
388 -514 -359 0
388 -482 -359 0
-388 482 359 0
-388 514 359 0
-388 482 514 0
-389 -382 -390 0
-389 382 390 0
389 382 -390 0
389 -382 390 0
390 475 -507 0
390 -475 507 0
-390 -475 -507 0
-390 475 507 0
391 -489 -393 0
391 489 -383 392 0
391 489 383 -392 0
-391 -489 393 0
-391 489 -383 -392 0
-391 489 383 392 0
392 476 -508 0
392 -476 508 0
-392 -476 -508 0
-392 476 508 0
-393 -384 -394 0
-393 384 394 0
393 384 -394 0
393 -384 394 0
394 477 -509 0
394 -477 509 0
-394 -477 -509 0
-394 477 509 0
395 -487 -488 400 0
395 -487 488 396 0
-395 487 0
-395 -488 -400 0
-395 488 -396 0
396 -489 -398 0
396 489 -385 397 0
396 489 385 -397 0
-396 -489 398 0
-396 489 -385 -397 0
-396 489 385 397 0
397 478 -510 0
397 -478 510 0
-397 -478 -510 0
-397 478 510 0
-398 -386 -399 0
-398 386 399 0
398 386 -399 0
398 -386 399 0
399 479 -511 0
399 -479 511 0
-399 -479 -511 0
-399 479 511 0
400 -489 -402 0
400 489 -387 401 0
400 489 387 -401 0
-400 -489 402 0
-400 489 -387 -401 0
-400 489 387 401 0
401 480 -512 0
401 -480 512 0
-401 -480 -512 0
-401 480 512 0
-402 -388 -403 0
-402 388 403 0
402 388 -403 0
402 -388 403 0
403 481 -513 0
403 -481 513 0
-403 -481 -513 0
-403 481 513 0
-404 -486 405 0
-404 486 432 445 0
404 -486 -405 0
404 486 -445 0
404 486 -432 0
405 487 -406 0
405 -487 -423 0
-405 -487 423 0
-405 487 406 0
406 488 -407 0
406 -488 -419 0
-406 -488 419 0
-406 488 407 0
407 -489 -417 0
407 489 -408 409 0
407 489 408 -409 0
-407 -489 417 0
-407 489 -408 -409 0
-407 489 408 409 0
408 466 -498 0
408 -466 498 0
-408 -466 -498 0
-408 466 498 0
409 -467 -499 0
409 -499 -410 0
409 -467 -410 0
-409 467 410 0
-409 499 410 0
-409 467 499 0
410 -468 -500 0
410 -500 -411 0
410 -468 -411 0
-410 468 411 0
-410 500 411 0
-410 468 500 0
411 -469 -501 0
411 -501 -412 0
411 -469 -412 0
-411 469 412 0
-411 501 412 0
-411 469 501 0
412 -470 -502 0
412 -502 -413 0
412 -470 -413 0
-412 470 413 0
-412 502 413 0
-412 470 502 0
413 -471 -503 0
413 -503 -414 0
413 -471 -414 0
-413 471 414 0
-413 503 414 0
-413 471 503 0
414 -472 -504 0
414 -504 -415 0
414 -472 -415 0
-414 472 415 0
-414 504 415 0
-414 472 504 0
415 -473 -505 0
415 -505 -416 0
415 -473 -416 0
-415 473 416 0
-415 505 416 0
-415 473 505 0
416 -474 -506 0
416 -506 -381 0
416 -474 -381 0
-416 474 381 0
-416 506 381 0
-416 474 506 0
-417 -410 -418 0
-417 410 418 0
417 410 -418 0
417 -410 418 0
418 467 -499 0
418 -467 499 0
-418 -467 -499 0
-418 467 499 0
419 -489 -421 0
419 489 -411 420 0
419 489 411 -420 0
-419 -489 421 0
-419 489 -411 -420 0
-419 489 411 420 0
420 468 -500 0
420 -468 500 0
-420 -468 -500 0
-420 468 500 0
-421 -412 -422 0
-421 412 422 0
421 412 -422 0
421 -412 422 0
422 469 -501 0
422 -469 501 0
-422 -469 -501 0
-422 469 501 0
423 488 -424 0
423 -488 -428 0
-423 -488 428 0
-423 488 424 0
424 -489 -426 0
424 489 -413 425 0
424 489 413 -425 0
-424 -489 426 0
-424 489 -413 -425 0
-424 489 413 425 0
425 470 -502 0
425 -470 502 0
-425 -470 -502 0
-425 470 502 0
-426 -414 -427 0
-426 414 427 0
426 414 -427 0
426 -414 427 0
427 471 -503 0
427 -471 503 0
-427 -471 -503 0
-427 471 503 0
428 -489 -430 0
428 489 -415 429 0
428 489 415 -429 0
-428 -489 430 0
-428 489 -415 -429 0
-428 489 415 429 0
429 472 -504 0
429 -472 504 0
-429 -472 -504 0
-429 472 504 0
-430 -416 -431 0
-430 416 431 0
430 416 -431 0
430 -416 431 0
431 473 -505 0
431 -473 505 0
-431 -473 -505 0
-431 473 505 0
432 -487 -488 -441 0
432 -487 488 -433 0
-432 487 0
-432 -488 441 0
-432 488 433 0
433 -489 -439 0
433 489 -434 435 0
433 489 434 -435 0
-433 -489 439 0
-433 489 -434 -435 0
-433 489 434 435 0
434 462 -494 0
434 -462 494 0
-434 -462 -494 0
-434 462 494 0
435 -463 -495 0
435 -495 -436 0
435 -463 -436 0
-435 463 436 0
-435 495 436 0
-435 463 495 0
436 -464 -496 0
436 -496 -437 0
436 -464 -437 0
-436 464 437 0
-436 496 437 0
-436 464 496 0
437 -465 -497 0
437 -497 -438 0
437 -465 -438 0
-437 465 438 0
-437 497 438 0
-437 465 497 0
438 -466 -498 0
438 -498 -409 0
438 -466 -409 0
-438 466 409 0
-438 498 409 0
-438 466 498 0
-439 -436 -440 0
-439 436 440 0
439 436 -440 0
439 -436 440 0
440 463 -495 0
440 -463 495 0
-440 -463 -495 0
-440 463 495 0
441 -489 -443 0
441 489 -437 442 0
441 489 437 -442 0
-441 -489 443 0
-441 489 -437 -442 0
-441 489 437 442 0
442 464 -496 0
442 -464 496 0
-442 -464 -496 0
-442 464 496 0
-443 -438 -444 0
-443 438 444 0
443 438 -444 0
443 -438 444 0
444 465 -497 0
444 -465 497 0
-444 -465 -497 0
-444 465 497 0
445 487 -488 -454 0
445 487 488 -446 0
-445 -487 0
-445 -488 454 0
-445 488 446 0
-446 489 450 0
-446 -489 -447 -453 0
-446 -489 447 453 0
446 489 -450 0
446 -489 -447 453 0
446 -489 447 -453 0
447 -460 -492 0
447 -492 -448 0
447 -460 -448 0
-447 460 448 0
-447 492 448 0
-447 460 492 0
448 -461 -493 0
448 -493 -449 0
448 -461 -449 0
-448 461 449 0
-448 493 449 0
-448 461 493 0
449 -462 -494 0
449 -494 -435 0
449 -462 -435 0
-449 462 435 0
-449 494 435 0
-449 462 494 0
-450 451 452 0
-450 -451 -452 0
450 -451 452 0
450 451 -452 0
451 -459 -491 0
451 -491 -447 0
451 -459 -447 0
-451 459 447 0
-451 491 447 0
-451 459 491 0
-452 -458 -490 0
-452 458 490 0
452 458 -490 0
452 -458 490 0
453 459 -491 0
453 -459 491 0
-453 -459 -491 0
-453 459 491 0
454 -489 -456 0
454 489 -448 455 0
454 489 448 -455 0
-454 -489 456 0
-454 489 -448 -455 0
-454 489 448 455 0
455 460 -492 0
455 -460 492 0
-455 -460 -492 0
-455 460 492 0
-456 -449 -457 0
-456 449 457 0
456 449 -457 0
456 -449 457 0
457 461 -493 0
457 -461 493 0
-457 -461 -493 0
-457 461 493 0
-522 0
2 0

